<number of tasks>
50

<cycle time>
1000

<order strength>
0.198


<task times>
1 495
2 576
3 347
4 573
5 599
6 484
7 438
8 490
9 404
10 622
11 619
12 363
13 458
14 390
15 585
16 427
17 173
18 458
19 402
20 644
21 338
22 596
23 685
24 305
25 366
26 430
27 528
28 650
29 489
30 638
31 528
32 390
33 415
34 455
35 442
36 559
37 564
38 385
39 491
40 476
41 187
42 638
43 478
44 257
45 434
46 357
47 571
48 591
49 435
50 460

<precedence relations>
1,4
1,6
2,7
2,8
3,5
4,11
5,9
5,32
5,37
6,10
6,14
7,12
8,13
8,15
8,33
9,17
10,19
11,20
12,16
12,23
12,24
13,18
13,25
14,21
14,26
15,22
16,27
17,28
18,29
19,30
20,32
21,31
23,33
26,32
27,37
28,34
29,35
30,36
31,37
32,39
33,38
33,40
33,41
34,44
35,42
36,44
37,45
38,43
38,45
41,46
42,47
43,48
45,49
45,50
46,49

<end>
